solution status: optimal solution found
objective value:                      192936.90589797
d11(0,0)                                            1 	(obj:0)
d11(1,1)                                            1 	(obj:0)
d11(2,3)                                            1 	(obj:0)
d11(2,4)                                            1 	(obj:0)
d11(2,5)                                            1 	(obj:0)
d11(2,6)                                            1 	(obj:0)
d11(3,7)                                            1 	(obj:0)
d11(3,8)                                            1 	(obj:0)
d11(3,9)                                            1 	(obj:0)
d11(3,10)                                           1 	(obj:0)
d11(3,11)                                           1 	(obj:0)
d11(3,12)                                           1 	(obj:0)
d11(3,13)                                           1 	(obj:0)
d11(3,14)                                           1 	(obj:0)
d11(4,15)                                           1 	(obj:0)
d11(4,17)                                           1 	(obj:0)
d11(4,19)                                           1 	(obj:0)
d11(4,23)                                           1 	(obj:0)
d11(4,25)                                           1 	(obj:0)
d11(4,27)                                           1 	(obj:0)
d12(4,16)                                           1 	(obj:0)
d12(4,18)                                           1 	(obj:0)
d12(4,20)                                           1 	(obj:0)
d12(4,22)                                           1 	(obj:0)
d12(4,24)                                           1 	(obj:0)
d12(4,26)                                           1 	(obj:0)
d12(4,28)                                           1 	(obj:0)
d12(4,30)                                           1 	(obj:0)
d21(3,7)                                            1 	(obj:0)
d21(3,8)                                            1 	(obj:0)
d21(3,9)                                            1 	(obj:0)
d21(3,11)                                           1 	(obj:0)
d21(4,15)                                           1 	(obj:0)
d21(4,16)                                           1 	(obj:0)
d21(4,17)                                           1 	(obj:0)
d21(4,18)                                           1 	(obj:0)
d21(4,19)                                           1 	(obj:0)
d21(4,20)                                           1 	(obj:0)
d21(4,23)                                           1 	(obj:0)
d21(4,24)                                           1 	(obj:0)
y2(4,16)                             1385.48851144895 	(obj:0)
y2(4,18)                             1385.48851144895 	(obj:0)
y2(4,20)                             1385.48851144895 	(obj:0)
y2(4,22)                             1385.48851144895 	(obj:0)
y2(4,24)                             1385.48851144895 	(obj:0)
y2(4,26)                             1385.48851144895 	(obj:0)
y2(4,28)                             1385.48851144895 	(obj:0)
y2(4,30)                             1385.48851144895 	(obj:0)
STE(1,1)                             9933.75010111118 	(obj:0)
STE(0,0)                                        12600 	(obj:0)
STE(1,2)                                        11592 	(obj:0)
STE(2,3)                             2877.75010111118 	(obj:0)
STE(2,4)                                         4536 	(obj:0)
STE(2,5)                                         4536 	(obj:0)
STE(2,6)                             6194.24989888882 	(obj:0)
STE(3,7)                             211.500202222365 	(obj:0)
STE(3,8)                             1869.75010111112 	(obj:0)
STE(3,9)                             1869.75010111118 	(obj:0)
STE(3,10)                                        3528 	(obj:0)
STE(3,11)                            1869.75010111118 	(obj:0)
STE(3,12)                            3527.99999999994 	(obj:0)
STE(3,13)                                        3528 	(obj:0)
STE(3,14)                            5186.24989888882 	(obj:0)
STE(4,15)                           -796.499797777635 	(obj:0)
STE(4,16)                            519.714288098871 	(obj:0)
STE(4,17)                            861.750101111121 	(obj:0)
STE(4,18)                            2177.96418698763 	(obj:0)
STE(4,19)                            861.750101111183 	(obj:0)
STE(4,20)                            2177.96418698769 	(obj:0)
STE(4,21)                                        2520 	(obj:0)
STE(4,22)                            3836.21408587651 	(obj:0)
STE(4,23)                            861.750101111182 	(obj:0)
STE(4,24)                            2177.96418698769 	(obj:0)
STE(4,25)                            2519.99999999994 	(obj:0)
STE(4,26)                            3836.21408587644 	(obj:0)
STE(4,27)                                        2520 	(obj:0)
STE(4,28)                            3836.21408587651 	(obj:0)
STE(4,29)                            4178.24989888882 	(obj:0)
STE(4,30)                            5494.46398476532 	(obj:0)
y1(3,11)                             1492.42490899994 	(obj:0)
y1(3,13)                             1492.42490899994 	(obj:0)
AVE(1)                               3265.91696791192 	(obj:0)
AVE(2)                               3332.74178563731 	(obj:0)
AVE(3)                               3444.11697932125 	(obj:0)
WB(4)                                3399.56511093778 	(obj:0)
AVE(4)                               3399.56511093778 	(obj:0)
WG(1)                                3265.91696791192 	(obj:10)
WG(2)                                3332.74178563731 	(obj:10)
WG(3)                                3444.11697932125 	(obj:10)
BG(1)                                930.375531067645 	(obj:10)
BG(2)                                4894.95386742395 	(obj:10)
BG(3)                                752.175519658316 	(obj:10)
BG(4)                                2673.40993877551 	(obj:10)
y1(1,1)                              1492.42490899993 	(obj:0)
y1(2,3)                                        5443.2 	(obj:0)
y1(2,4)                              3950.77509100007 	(obj:0)
y1(2,5)                                        5443.2 	(obj:0)
y1(2,6)                              3950.77509100006 	(obj:0)
y1(3,7)                              1492.42490899994 	(obj:0)
y1(3,9)                              1492.42490899994 	(obj:0)
